2 1
3 2
4 1
5 3
5 4
6 2
6 4
7 1
7 3
8 2
8 5
9 1
9 5
10 3
10 4
11 6
11 7
11 8
11 9
11 10
12 2
12 4
12 7
12 9
13 1
13 3
13 6
13 8
14 2
14 5
14 7
14 10
15 1
15 5
15 6
15 10
16 3
16 4
16 8
16 9
17 2
17 4
17 11
18 1
18 3
18 11
19 2
19 5
19 11
20 1
20 5
20 11
21 3
21 4
21 11
22 6
22 7
22 8
22 9
22 10
23 12
23 13
23 14
23 15
23 16
23 17
23 18
23 19
23 20
23 21
23 22
24 2
24 4
24 7
24 9
24 13
24 15
24 18
24 20
25 1
25 3
25 6
25 8
25 12
25 14
25 17
25 19
26 2
26 5
26 7
26 10
26 13
26 16
26 18
26 21
27 1
27 5
27 6
27 10
27 12
27 16
27 17
27 21
28 3
28 4
28 8
28 9
28 14
28 15
28 19
28 20
29 2
29 4
29 11
29 13
29 15
29 22
30 1
30 3
30 11
30 12
30 14
30 22
31 2
31 5
31 11
31 13
31 16
31 22
32 1
32 5
32 11
32 12
32 16
32 22
33 3
33 4
33 11
33 14
33 15
33 22
34 6
34 7
34 8
34 9
34 10
34 17
34 18
34 19
34 20
34 21
35 2
35 4
35 7
35 9
35 23
36 1
36 3
36 6
36 8
36 23
37 2
37 5
37 7
37 10
37 23
38 1
38 5
38 6
38 10
38 23
39 3
39 4
39 8
39 9
39 23
40 2
40 4
40 11
40 23
41 1
41 3
41 11
41 23
42 2
42 5
42 11
42 23
43 1
43 5
43 11
43 23
44 3
44 4
44 11
44 23
45 6
45 7
45 8
45 9
45 10
45 23
46 12
46 13
46 14
46 15
46 16
46 17
46 18
46 19
46 20
46 21
46 22
47 24
47 25
47 26
47 27
47 28
47 29
47 30
47 31
47 32
47 33
47 34
47 35
47 36
47 37
47 38
47 39
47 40
47 41
47 42
47 43
47 44
47 45
47 46
6